21 136
41 18
90 39
11 78
29 120
9 175
19 67
27 169
43 3
46 78
2 59
15 97
19 188
36 120
41 20
47 30
40 96
26 67
57 26
68 41
9 80
20 111
20 37
8 33
13 17
87 11
85 12
31 113
20 46
57 70
92 29
86 4
8 116
15 63
45 125
16 140
14 1
43 24
28 93
71 27
10 193
26 21
27 34
4 7
95 38
24 11
40 47
64 10
20 99
23 91
48 75
10 122
27 182
76 67
44 70
3 130
30 47
9 157
41 104
50 25
15 12
87 61
97 23
48 80
10 95
29 70
43 24
47 45
46 88
16 33
20 199
7 106
53 65
39 74
11 47
35 57
54 105
8 83
18 17
22 22
94 22
14 25
19 89
70 69
31 45
49 15
2 28
98 17
3 174
75 46
16 141
15 64
33 40
24 100
58 58
65 6
6 13
49 72
12 29
47 19
